============================[ Problem Statistics ]=============================|                                                                             ||  Number of variables:          4242                                         ||  Number of clauses:           10424                                         ||  Parse time:                   0.80 s                                       ||                                                                             |============================[ Search Statistics ]==============================| Conflicts |          ORIGINAL         |          LEARNT          | Progress ||           |    Vars  Clauses Literals |    Limit  Clauses Lit/Cl |          |===============================================================================|       100 |    1591     6629  1294140 |     2430      100     53 | 62.501 % ||       250 |    1591     6629  1294140 |     2673      250     75 | 62.495 % |===============================================================================restarts              : 4conflicts             : 437            (361 /sec)decisions             : 797            (0.00 % random) (659 /sec)propagations          : 13718          (11347 /sec)conflict literals     : 36845          (94.48 % deleted)CPU time              : 1.209 sSATISFIABLE